(set-info :smt-lib-version 2.6)
(set-logic QF_UFBV)
(set-info :source |
Generated by: Certora
Generated on: 2024-01-16
Generator: The Certora Prover
Application: Web3 security
|)
(set-info :license "https://creativecommons.org/licenses/by/4.0/")
(set-info :category "industrial")
(set-info :status unknown)
(declare-fun x34 () Bool)
(declare-fun x149 () Bool)
(declare-fun x152 () (_ BitVec 256))
(declare-fun x135 () (_ BitVec 256))
(declare-fun x86 () (_ BitVec 256))
(declare-fun x282 () (_ BitVec 256))
(declare-fun x75 () (_ BitVec 256))
(declare-fun x327 () Bool)
(declare-fun x19 () (_ BitVec 256))
(declare-fun x179 () (_ BitVec 256))
(declare-fun x169 () (_ BitVec 256))
(declare-fun x283 () (_ BitVec 256))
(declare-fun x124 () (_ BitVec 256))
(declare-fun x212 () (_ BitVec 256))
(declare-fun x55 () (_ BitVec 256))
(declare-fun x39 () (_ BitVec 256))
(declare-fun x275 () (_ BitVec 256))
(declare-fun x290 () (_ BitVec 256))
(declare-fun x78 () (_ BitVec 256))
(declare-fun x320 () Bool)
(declare-fun x171 ((_ BitVec 256)) (_ BitVec 256))
(declare-fun x271 () (_ BitVec 256))
(declare-fun x263 () (_ BitVec 256))
(declare-fun x254 () (_ BitVec 256))
(declare-fun x140 () Bool)
(declare-fun x338 () (_ BitVec 256))
(declare-fun x162 () Bool)
(declare-fun x306 () Bool)
(declare-fun x217 () (_ BitVec 256))
(declare-fun x101 () Bool)
(declare-fun x130 () Bool)
(declare-fun x122 () Bool)
(declare-fun x297 () Bool)
(declare-fun x85 () (_ BitVec 256))
(declare-fun x12 () (_ BitVec 256))
(declare-fun x384 () (_ BitVec 256))
(declare-fun x314 () (_ BitVec 256))
(declare-fun x22 () Bool)
(declare-fun x334 () (_ BitVec 256))
(declare-fun x276 () Bool)
(declare-fun x61 () (_ BitVec 256))
(declare-fun x58 () (_ BitVec 256))
(declare-fun x183 ((_ BitVec 256)) (_ BitVec 256))
(declare-fun x236 () Bool)
(declare-fun x308 () Bool)
(declare-fun x153 () Bool)
(declare-fun x165 () (_ BitVec 256))
(declare-fun x131 () Bool)
(declare-fun x45 () (_ BitVec 256))
(declare-fun x81 () Bool)
(declare-fun x115 () (_ BitVec 256))
(declare-fun x57 () (_ BitVec 256))
(declare-fun x28 () (_ BitVec 256))
(declare-fun x216 () (_ BitVec 256))
(declare-fun x328 () Bool)
(declare-fun x93 () Bool)
(declare-fun x240 () Bool)
(declare-fun x37 () Bool)
(declare-fun x154 () Bool)
(declare-fun x300 () Bool)
(declare-fun x249 () (_ BitVec 256))
(declare-fun x234 () Bool)
(declare-fun x111 () (_ BitVec 256))
(declare-fun x390 () (_ BitVec 256))
(declare-fun x329 ((_ BitVec 256)) (_ BitVec 256))
(declare-fun x215 () Bool)
(declare-fun x393 () (_ BitVec 256))
(declare-fun x110 () Bool)
(declare-fun x378 () (_ BitVec 256))
(declare-fun x97 () (_ BitVec 256))
(declare-fun x286 () (_ BitVec 256))
(declare-fun x348 ((_ BitVec 256)) (_ BitVec 256))
(declare-fun x360 () Bool)
(declare-fun x227 () (_ BitVec 256))
(declare-fun x371 () (_ BitVec 256))
(declare-fun x197 () (_ BitVec 256))
(declare-fun x302 () Bool)
(declare-fun x252 () (_ BitVec 256))
(declare-fun x202 () (_ BitVec 256))
(declare-fun x341 () Bool)
(declare-fun x251 () Bool)
(declare-fun x114 () (_ BitVec 256))
(declare-fun x13 () Bool)
(declare-fun x223 ((_ BitVec 256)) (_ BitVec 256))
(declare-fun x318 () (_ BitVec 256))
(declare-fun x242 () (_ BitVec 256))
(declare-fun x7 () (_ BitVec 256))
(declare-fun x119 () Bool)
(declare-fun x225 () Bool)
(declare-fun x24 () Bool)
(declare-fun x343 () Bool)
(declare-fun x231 () Bool)
(declare-fun x377 () (_ BitVec 256))
(declare-fun x117 () Bool)
(declare-fun x172 () (_ BitVec 256))
(declare-fun x205 () (_ BitVec 256))
(declare-fun x186 () (_ BitVec 256))
(declare-fun x103 () (_ BitVec 256))
(declare-fun x358 () (_ BitVec 256))
(declare-fun x272 () (_ BitVec 256))
(declare-fun x17 () (_ BitVec 256))
(declare-fun x261 () Bool)
(declare-fun x31 () (_ BitVec 256))
(declare-fun x391 () (_ BitVec 256))
(declare-fun x175 () Bool)
(declare-fun x92 () Bool)
(declare-fun x292 () Bool)
(declare-fun x184 () (_ BitVec 256))
(declare-fun x340 () (_ BitVec 256))
(declare-fun x204 () Bool)
(declare-fun x279 () Bool)
(declare-fun x74 () Bool)
(declare-fun x38 () (_ BitVec 256))
(declare-fun x259 () (_ BitVec 256))
(declare-fun x118 () Bool)
(declare-fun x15 () Bool)
(declare-fun x25 () (_ BitVec 256))
(declare-fun x44 () Bool)
(declare-fun x313 ((_ BitVec 256)) (_ BitVec 256))
(declare-fun x151 () Bool)
(declare-fun x323 () Bool)
(declare-fun x333 () (_ BitVec 256))
(declare-fun x210 () (_ BitVec 256))
(declare-fun x380 () (_ BitVec 256))
(declare-fun x316 () Bool)
(declare-fun x394 () Bool)
(declare-fun x173 () (_ BitVec 256))
(declare-fun x265 () (_ BitVec 256))
(declare-fun x69 () Bool)
(declare-fun x201 () Bool)
(declare-fun x303 () (_ BitVec 256))
(declare-fun x170 ((_ BitVec 256)) (_ BitVec 256))
(declare-fun x3 () (_ BitVec 256))
(declare-fun x156 ((_ BitVec 256)) (_ BitVec 256))
(declare-fun x41 () Bool)
(declare-fun x141 () (_ BitVec 256))
(declare-fun x331 () (_ BitVec 256))
(declare-fun x359 () Bool)
(declare-fun x349 () (_ BitVec 256))
(declare-fun x70 () (_ BitVec 256))
(declare-fun x273 () Bool)
(declare-fun x220 () Bool)
(declare-fun x76 () Bool)
(declare-fun x253 () (_ BitVec 256))
(declare-fun x307 () Bool)
(declare-fun x68 () (_ BitVec 256))
(declare-fun x293 () Bool)
(declare-fun x256 () Bool)
(declare-fun x355 () (_ BitVec 256))
(declare-fun x211 () (_ BitVec 256))
(declare-fun x4 () (_ BitVec 256))
(declare-fun x147 () (_ BitVec 256))
(declare-fun x239 () Bool)
(declare-fun x159 () (_ BitVec 256))
(declare-fun x382 () Bool)
(declare-fun x369 () (_ BitVec 256))
(declare-fun x209 ((_ BitVec 256)) (_ BitVec 256))
(declare-fun x274 () Bool)
(declare-fun x270 () (_ BitVec 256))
(declare-fun x244 () Bool)
(declare-fun x345 () (_ BitVec 256))
(declare-fun x84 () (_ BitVec 256))
(declare-fun x352 () Bool)
(declare-fun x145 () (_ BitVec 256))
(declare-fun x166 () (_ BitVec 256))
(declare-fun x284 () Bool)
(declare-fun x386 () Bool)
(declare-fun x192 () Bool)
(declare-fun x164 () Bool)
(declare-fun x315 () (_ BitVec 256))
(declare-fun x163 () (_ BitVec 256))
(declare-fun x90 () (_ BitVec 256))
(declare-fun x245 () (_ BitVec 256))
(declare-fun x357 () Bool)
(declare-fun x133 () Bool)
(declare-fun x150 () Bool)
(declare-fun x47 ((_ BitVec 256)) (_ BitVec 256))
(declare-fun x148 () Bool)
(declare-fun x336 () (_ BitVec 256))
(declare-fun x362 () (_ BitVec 256))
(declare-fun x311 () Bool)
(declare-fun x364 () Bool)
(declare-fun x288 () (_ BitVec 256))
(declare-fun x18 () Bool)
(declare-fun x368 ((_ BitVec 256)) (_ BitVec 256))
(declare-fun x138 ((_ BitVec 256)) (_ BitVec 256))
(declare-fun x167 ((_ BitVec 256)) (_ BitVec 256))
(declare-fun x108 () (_ BitVec 256))
(declare-fun x269 () (_ BitVec 256))
(declare-fun x43 () (_ BitVec 256))
(declare-fun x385 () (_ BitVec 256))
(declare-fun x379 () (_ BitVec 256))
(declare-fun x310 () (_ BitVec 256))
(declare-fun x241 () (_ BitVec 256))
(declare-fun x5 () Bool)
(declare-fun x51 () Bool)
(declare-fun x6 () (_ BitVec 256))
(declare-fun x296 () (_ BitVec 256))
(declare-fun x132 () Bool)
(declare-fun x10 () Bool)
(declare-fun x233 () (_ BitVec 256))
(declare-fun x83 () Bool)
(declare-fun x182 () (_ BitVec 256))
(declare-fun x230 () Bool)
(declare-fun x102 ((_ BitVec 256)) Bool)
(declare-fun x229 () (_ BitVec 256))
(declare-fun x161 () (_ BitVec 256))
(declare-fun x136 () Bool)
(declare-fun x267 () (_ BitVec 256))
(declare-fun x305 () (_ BitVec 256))
(declare-fun x120 () Bool)
(declare-fun x195 () (_ BitVec 256))
(declare-fun x123 () Bool)
(declare-fun x125 ((_ BitVec 256)) (_ BitVec 256))
(declare-fun x73 () Bool)
(declare-fun x337 () Bool)
(declare-fun x262 () (_ BitVec 256))
(declare-fun x374 () Bool)
(declare-fun x155 () (_ BitVec 256))
(declare-fun x8 () Bool)
(declare-fun x88 () (_ BitVec 256))
(declare-fun x335 () Bool)
(declare-fun x104 ((_ BitVec 256)) (_ BitVec 256))
(declare-fun x203 () (_ BitVec 256))
(declare-fun x36 () (_ BitVec 256))
(declare-fun x27 () (_ BitVec 256))
(declare-fun x50 () Bool)
(declare-fun x176 ((_ BitVec 256)) (_ BitVec 256))
(declare-fun x20 () (_ BitVec 256))
(declare-fun x95 () Bool)
(declare-fun x191 () (_ BitVec 256))
(declare-fun x207 () (_ BitVec 256))
(declare-fun x285 () (_ BitVec 256))
(declare-fun x32 () (_ BitVec 256))
(declare-fun x281 ((_ BitVec 256)) (_ BitVec 256))
(declare-fun x370 () (_ BitVec 256))
(declare-fun x301 ((_ BitVec 256)) (_ BitVec 256))
(declare-fun x299 () Bool)
(declare-fun x128 () (_ BitVec 256))
(declare-fun x232 () Bool)
(declare-fun x52 () (_ BitVec 256))
(declare-fun x342 () (_ BitVec 256))
(declare-fun x157 () Bool)
(declare-fun x193 ((_ BitVec 256)) (_ BitVec 256))
(declare-fun x257 () (_ BitVec 256))
(declare-fun x198 () (_ BitVec 256))
(declare-fun x356 () (_ BitVec 256))
(declare-fun x89 () (_ BitVec 256))
(declare-fun x53 () (_ BitVec 256))
(declare-fun x79 () Bool)
(declare-fun x268 () Bool)
(declare-fun x246 () (_ BitVec 256))
(declare-fun x126 () (_ BitVec 256))
(declare-fun x143 ((_ BitVec 256)) (_ BitVec 256))
(declare-fun x109 () Bool)
(declare-fun x237 () Bool)
(declare-fun x361 () Bool)
(declare-fun x258 () Bool)
(declare-fun x107 () Bool)
(declare-fun x353 () Bool)
(declare-fun x264 () (_ BitVec 256))
(declare-fun x177 () (_ BitVec 256))
(declare-fun x189 () (_ BitVec 256))
(declare-fun x339 () (_ BitVec 256))
(declare-fun x21 () (_ BitVec 256))
(declare-fun x116 () (_ BitVec 256))
(declare-fun x321 () Bool)
(declare-fun x375 () Bool)
(declare-fun x187 () Bool)
(declare-fun x82 () Bool)
(declare-fun x113 ((_ BitVec 256) (_ BitVec 256) (_ BitVec 256)) (_ BitVec 256))
(declare-fun x388 () (_ BitVec 256))
(declare-fun x190 () (_ BitVec 256))
(declare-fun x383 () (_ BitVec 256))
(declare-fun x42 () Bool)
(declare-fun x46 () (_ BitVec 256))
(declare-fun x94 () Bool)
(declare-fun x49 () (_ BitVec 256))
(declare-fun x72 () (_ BitVec 256))
(declare-fun x330 () (_ BitVec 256))
(declare-fun x60 () (_ BitVec 256))
(declare-fun x206 () (_ BitVec 256))
(declare-fun x29 () (_ BitVec 256))
(declare-fun x65 () (_ BitVec 256))
(declare-fun x317 () (_ BitVec 256))
(declare-fun x363 () (_ BitVec 256))
(declare-fun x188 () (_ BitVec 256))
(declare-fun x332 () (_ BitVec 256))
(declare-fun x255 () (_ BitVec 256))
(declare-fun x144 () (_ BitVec 256))
(declare-fun x121 () (_ BitVec 256))
(declare-fun x392 () (_ BitVec 256))
(declare-fun x250 () Bool)
(declare-fun x180 () Bool)
(declare-fun x87 () Bool)
(declare-fun x26 () (_ BitVec 256))
(declare-fun x48 () (_ BitVec 256))
(declare-fun x326 () (_ BitVec 256))
(declare-fun x389 () Bool)
(declare-fun x105 () Bool)
(declare-fun x35 () Bool)
(declare-fun x319 () Bool)
(declare-fun x11 () (_ BitVec 256))
(declare-fun x295 () (_ BitVec 256))
(declare-fun x278 () Bool)
(declare-fun x158 () Bool)
(declare-fun x228 () (_ BitVec 256))
(declare-fun x351 () (_ BitVec 256))
(declare-fun x129 () (_ BitVec 256))
(declare-fun x214 () Bool)
(declare-fun x287 () (_ BitVec 256))
(declare-fun x221 () (_ BitVec 256))
(declare-fun x219 () Bool)
(declare-fun x142 () Bool)
(declare-fun x63 () (_ BitVec 256))
(declare-fun x54 () Bool)
(declare-fun x14 () Bool)
(declare-fun x168 () (_ BitVec 256))
(declare-fun x1 () (_ BitVec 256))
(declare-fun x344 () Bool)
(declare-fun x266 () (_ BitVec 256))
(declare-fun x174 () (_ BitVec 256))
(declare-fun x23 () Bool)
(declare-fun x71 () (_ BitVec 256))
(declare-fun x222 () (_ BitVec 256))
(declare-fun x366 () (_ BitVec 256))
(declare-fun x185 () Bool)
(declare-fun x247 () Bool)
(declare-fun x91 () (_ BitVec 256))
(declare-fun x199 () (_ BitVec 256))
(declare-fun x322 () (_ BitVec 256))
(declare-fun x347 ((_ BitVec 256)) (_ BitVec 256))
(declare-fun x98 () (_ BitVec 256))
(declare-fun x277 () Bool)
(declare-fun x127 () (_ BitVec 256))
(declare-fun x196 () (_ BitVec 256))
(declare-fun x62 () Bool)
(declare-fun x9 () Bool)
(declare-fun x376 () (_ BitVec 256))
(declare-fun x365 () Bool)
(declare-fun x64 () (_ BitVec 256))
(declare-fun x289 () (_ BitVec 256))
(define-fun x30 ((x350 (_ BitVec 256)) (x16 (_ BitVec 256))) Bool (= x350 (bvudiv (bvmul x16 x350) x16)))
(define-fun x243 ((x350 (_ BitVec 256)) (x16 (_ BitVec 256))) Bool (= x350 (bvsdiv (bvmul x350 x16) x16)))
(define-fun x309 ((x350 (_ BitVec 256)) (x16 (_ BitVec 256))) Bool (= x350 (bvsdiv (bvmul x16 x350) x16)))
(define-fun x80 ((x77 (_ BitVec 256))) (_ BitVec 256) (_ bv0 256))
(define-fun x40 ((x77 (_ BitVec 256))) (_ BitVec 256) (_ bv0 256))
(define-fun x134 ((x77 (_ BitVec 256))) (_ BitVec 256) (_ bv0 256))
(define-fun x146 ((x77 (_ BitVec 256))) (_ BitVec 256) (_ bv0 256))
(define-fun x33 ((x77 (_ BitVec 256))) (_ BitVec 256) (_ bv0 256))
(define-fun x137 ((x77 (_ BitVec 256))) (_ BitVec 256) (_ bv0 256))
(define-fun x381 ((x77 (_ BitVec 256))) (_ BitVec 256) (_ bv0 256))
(define-fun x260 ((x77 (_ BitVec 256))) (_ BitVec 256) (_ bv0 256))
(define-fun x372 ((x77 (_ BitVec 256))) (_ BitVec 256) (_ bv0 256))
(define-fun x235 ((x77 (_ BitVec 256))) (_ BitVec 256) (_ bv0 256))
(define-fun x178 ((x77 (_ BitVec 256))) (_ BitVec 256) (_ bv0 256))
(define-fun x59 ((x77 (_ BitVec 256))) (_ BitVec 256) (_ bv0 256))
(define-fun x354 ((x77 (_ BitVec 256))) (_ BitVec 256) (_ bv0 256))
(define-fun x294 ((x77 (_ BitVec 256))) (_ BitVec 256) (_ bv0 256))
(define-fun x67 ((x77 (_ BitVec 256))) (_ BitVec 256) (ite (= x77 x266) x245 (x104 x77)))
(define-fun x304 ((x77 (_ BitVec 256))) (_ BitVec 256) (ite (= x77 x378) x111 (x40 x77)))
(define-fun x213 ((x77 (_ BitVec 256))) (_ BitVec 256) (ite (= x77 x163) x379 (x304 x77)))
(define-fun x100 ((x77 (_ BitVec 256))) (_ BitVec 256) (ite (= x77 x177) x227 (x134 x77)))
(define-fun x139 ((x77 (_ BitVec 256))) (_ BitVec 256) (ite (= x77 x57) x141 (x213 x77)))
(define-fun x2 ((x77 (_ BitVec 256))) (_ BitVec 256) (ite (= x71 x77) x199 (x183 x77)))
(define-fun x312 ((x77 (_ BitVec 256))) (_ BitVec 256) (ite (= x77 x114) x385 (x156 x77)))
(define-fun x291 ((x77 (_ BitVec 256))) (_ BitVec 256) (ite (= x114 x77) x88 (x170 x77)))
(define-fun x387 ((x77 (_ BitVec 256))) (_ BitVec 256) (ite (= x77 x114) x390 (x2 x77)))
(define-fun x367 ((x77 (_ BitVec 256))) (_ BitVec 256) (ite (= x77 x114) x196 (x312 x77)))
(define-fun x248 ((x77 (_ BitVec 256))) (_ BitVec 256) (ite (= x114 x77) x39 (x291 x77)))
(define-fun x56 ((x77 (_ BitVec 256))) (_ BitVec 256) (ite (= x114 x77) x205 (x171 x77)))
(define-fun x112 ((x77 (_ BitVec 256))) (_ BitVec 256) (ite x375 (x170 x77) (ite x87 (x170 x77) (x248 x77))))
(define-fun x96 ((x77 (_ BitVec 256))) (_ BitVec 256) (ite x375 (x2 x77) (ite x87 (x2 x77) (x387 x77))))
(define-fun x106 ((x77 (_ BitVec 256))) (_ BitVec 256) (ite x375 (x156 x77) (ite x87 (x156 x77) (x367 x77))))
(define-fun x346 ((x77 (_ BitVec 256))) (_ BitVec 256) (ite x375 (x171 x77) (ite x87 (x171 x77) (x56 x77))))
(define-fun x324 ((x77 (_ BitVec 256))) (_ BitVec 256) (ite (= x206 x77) x155 (x106 x77)))
(define-fun x208 ((x77 (_ BitVec 256))) (_ BitVec 256) (ite (= x206 x77) x49 (x112 x77)))
(define-fun x280 ((x77 (_ BitVec 256))) (_ BitVec 256) (ite (= x77 (_ bv192 256)) x186 (x80 x77)))
(define-fun x194 ((x77 (_ BitVec 256))) (_ BitVec 256) (ite x119 (ite x316 (x80 x77) (x280 x77)) (x80 x77)))
(define-fun x298 ((x77 (_ BitVec 256))) (_ BitVec 256) (ite (= x77 (_ bv192 256)) x20 (x194 x77)))
(define-fun x325 ((x77 (_ BitVec 256))) (_ BitVec 256) (ite x22 (x194 x77) (x298 x77)))
(define-fun x224 ((x77 (_ BitVec 256))) (_ BitVec 256) (ite (= x77 (_ bv192 256)) x288 (x325 x77)))
(define-fun x226 ((x77 (_ BitVec 256))) (_ BitVec 256) (ite (= x77 (_ bv224 256)) x363 (x224 x77)))
(define-fun x373 ((x77 (_ BitVec 256))) (_ BitVec 256) (ite x82 (x325 x77) (x226 x77)))
(define-fun x160 ((x77 (_ BitVec 256))) (_ BitVec 256) (ite (= (_ bv192 256) x77) x4 (x373 x77)))
(define-fun x181 ((x77 (_ BitVec 256))) (_ BitVec 256) (ite (= x177 x77) (_ bv41436628393252172163539528543619094058851530980360706587524068930525597794304 256) (x160 x77)))
(define-fun x200 ((x77 (_ BitVec 256))) (_ BitVec 256) (ite (= x77 x257) x288 (x181 x77)))
(define-fun x66 ((x77 (_ BitVec 256))) (_ BitVec 256) (ite (= x296 x77) (_ bv0 256) (x200 x77)))
(define-fun x99 ((x77 (_ BitVec 256))) (_ BitVec 256) (ite (= x77 x202) x203 (x66 x77)))
(define-fun x238 ((x77 (_ BitVec 256))) (_ BitVec 256) (ite (= x135 x77) (_ bv0 256) (x99 x77)))
(define-fun x218 ((x77 (_ BitVec 256))) (_ BitVec 256) (ite (= x77 x282) x4 (x238 x77)))
(assert (= (x281 (x113 (_ bv64 256) x288 x264)) x288))
(assert (x102 (_ bv340282366920938463463374607431768211455 256)))
(assert (=> (bvule x380 (_ bv10000 256)) (= (x301 x380) (_ bv0 256))))
(assert (= (and x364 (not x150)) x302))
(assert (= (_ bv69 256) (x209 (x113 (_ bv64 256) (_ bv2 256) (_ bv69 256)))))
(assert (x102 (_ bv26959946667150639794667015087019630673637144422540572481103610249215 256)))
(assert (= x131 (=> (= x363 x286) x389)))
(assert (= x189 (x281 (x113 (_ bv64 256) x189 (_ bv0 256)))))
(assert (bvugt (x113 (_ bv64 256) x21 (_ bv0 256)) (_ bv10000 256)))
(assert (= (_ bv71 256) (x209 (x113 (_ bv64 256) x288 (_ bv71 256)))))
(assert (= (or x101 x316) x119))
(assert (= (_ bv0 256) (x301 (_ bv1000000000000000000 256))))
(assert (= (_ bv0 256) (x209 (x113 (_ bv64 256) x189 (_ bv0 256)))))
(assert (bvugt (x113 (_ bv64 256) x288 x264) (_ bv10000 256)))
(assert (= (_ bv64 256) (x176 (x113 (_ bv64 256) (_ bv2 256) (_ bv69 256)))))
(assert (= x256 (and x382 (not x94))))
(assert (= (x301 (_ bv4294967295 256)) (_ bv0 256)))
(assert (= x337 (=> (= x177 x6) x180)))
(assert (= (and x308 (not x140)) x344))
(assert (= x341 (=> (= (= x392 x20) x352) (and (=> (and (not x352) (and (= x14 (= (_ bv0 256) x210)) (or (and x14 (= (_ bv0 256) x286)) (and (not x14) (and (bvuge x75 (_ bv0 256)) (= x259 (bvudiv x75 (_ bv1000000000000000000 256))) (not (bvugt x330 x20)) (= (bvadd x20 (bvneg x392)) x330) (x30 x210 x330) (= (bvmul x330 x210) x75) (= x286 x259) (bvuge (_ bv57896044618658097711785492504343953926634992332820282019728792003956564819967 256) x75)))))) x131) (=> (and x352 (= (_ bv0 256) x363)) x389)))))
(assert (= (x301 (x113 (_ bv64 256) x288 (_ bv71 256))) (x113 (_ bv64 256) x288 (_ bv71 256))))
(assert (x102 (_ bv57896044618658097711785492504343953926634992332820282019728792003956564819967 256)))
(assert (bvugt (x113 (_ bv64 256) x288 (_ bv0 256)) (_ bv10000 256)))
(assert (bvugt (x113 (_ bv64 256) x288 (_ bv61 256)) (_ bv10000 256)))
(assert (= (x176 (x113 (_ bv64 256) x288 (_ bv61 256))) (_ bv64 256)))
(assert (x102 (_ bv1461501637330902918203684832716283019655932542975 256)))
(assert (= x83 (or x302 x82)))
(assert (= x215 (and x164 x14)))
(assert (= (or x44 (and x247 x276)) x234))
(assert (= (_ bv64 256) (x176 (x113 (_ bv64 256) x189 (_ bv0 256)))))
(assert (= (x176 (x113 (_ bv64 256) x288 (_ bv72 256))) (_ bv64 256)))
(assert (bvugt (x113 (_ bv64 256) x189 (_ bv0 256)) (_ bv10000 256)))
(assert (= (or x360 x230) x37))
(assert (= (x301 (bvadd (_ bv2 256) x275)) (x301 x275)))
(assert (not (x102 (x113 (_ bv64 256) x174 (_ bv60 256)))))
(assert (= (x301 (_ bv20282409603651670423947251286015 256)) (_ bv0 256)))
(assert (= (_ bv61 256) (x209 (x113 (_ bv64 256) x288 (_ bv61 256)))))
(assert (not (x102 (x113 (_ bv64 256) x288 x264))))
(assert (= (x209 (x113 (_ bv64 256) x288 (_ bv72 256))) (_ bv72 256)))
(assert (not (x102 (x113 (_ bv64 256) x288 (_ bv61 256)))))
(assert (= x110 (=> (and (and (= (_ bv0 256) x168) (= (= x189 (_ bv0 256)) x9)) (or (and x9 (= x305 (_ bv512 256))) (and (and (or (and (not x73) (and (bvuge (_ bv20282409603651670423947251286015 256) x366) (= x385 (x156 x116)) (= (bvadd x45 (bvneg x78)) x318) (bvule x385 (_ bv4722366482869645213695 256)) (bvuge (_ bv3 256) x205) (bvule x45 (_ bv4722366482869645213695 256)) (bvuge (_ bv4722366482869645213695 256) x318) (= (x291 x114) x39) (= (x113 (_ bv64 256) x189 (_ bv0 256)) x116) (= x88 (bvadd x1 x318)) (bvuge (_ bv4722366482869645213695 256) x196) (= x3 (_ bv736 256)) (= x114 (x113 (_ bv64 256) x189 (_ bv0 256))) (= x196 (x312 x114)) (= x205 (x171 x116)) (bvule x88 (_ bv4722366482869645213695 256)) (= (x170 x116) x45) (= (_ bv832 256) x305) (= x1 (bvudiv x97 (_ bv10000000000 256))) (= (x2 x116) x366) (bvule x390 (_ bv20282409603651670423947251286015 256)) (bvule x39 (_ bv4722366482869645213695 256)) (= x78 (bvudiv x203 (_ bv10000000000 256))) (= x390 (x2 x114)))) (and (= (_ bv512 256) x305) x73)) (and (= x36 (bvadd x203 (bvneg x97))) (= x73 (= x36 (_ bv0 256))))) (not x9)))) x105)))
(assert (= x394 (and x382 x94)))
(assert (=> (bvule x333 (_ bv10000 256)) (= (_ bv0 256) (x301 x333))))
(assert (= (x281 (x113 (_ bv64 256) (_ bv2 256) (_ bv69 256))) (_ bv2 256)))
(assert (= x93 x79))
(assert (not (x102 (x113 (_ bv64 256) (_ bv2 256) (_ bv69 256)))))
(assert (= x288 (x281 (x113 (_ bv64 256) x288 (_ bv71 256)))))
(assert (= (x301 (x113 (_ bv64 256) x189 (_ bv0 256))) (x113 (_ bv64 256) x189 (_ bv0 256))))
(assert (= x82 (and x150 x364)))
(assert (= (_ bv60 256) (x209 (x113 (_ bv64 256) x174 (_ bv60 256)))))
(assert (= x279 (or x307 x386)))
(assert (= (_ bv0 256) (x301 (_ bv57896044618658097711785492504343953926634992332820282019728792003956564819967 256))))
(assert (= x22 (and x51 x352)))
(assert (= x105 (=> (and (or (and x343 (= (_ bv0 256) x21)) (and (not x343) (and (bvule x60 (_ bv1461501637330902918203684832716283019655932542975 256)) (= x60 (x313 x27)) (= (x113 (_ bv64 256) x288 (_ bv72 256)) x27) (= x21 x60)))) (and (= (_ bv1 256) x28) (= x343 (bvult x58 (_ bv2 256))))) x273)))
(assert (= (x176 (x113 (_ bv64 256) x288 (_ bv71 256))) (_ bv64 256)))
(assert (= (_ bv0 256) (x301 (_ bv26959946667150639794667015087019630673637144422540572481103610249215 256))))
(assert (= x79 (=> (and (= x144 (_ bv0 256)) (= (bvadd (bvneg (_ bv32 256)) x147) x227) (= x69 (not (bvult (_ bv128 256) x11))) (= (bvadd (_ bv64 256) x378) x172) (= x378 (bvadd x177 (_ bv36 256))) (= (x100 x177) x11) (= x141 (bvadd (bvneg (_ bv39341301877480157781710804024396230103289065588583741745104145964028735258624 256)) x91)) (bvule (_ bv97 256) x11) (= (bvadd (_ bv32 256) x177) x57) (= (bvadd x172 (bvneg x177)) x147) (= x163 (bvadd (_ bv32 256) x378)) (= (bvand (_ bv26959946667150639794667015087019630673637144422540572481103610249215 256) x32) x91) (= x32 (x213 x57))) x69)))
(assert (= (_ bv0 256) (x301 (_ bv1461501637330902918203684832716283019655932542975 256))))
(assert (x102 (_ bv39341301877480157781710804024396230103289065588583741745104145964028735258624 256)))
(assert (= (and x51 (not x352)) x164))
(assert (= x288 (x281 (x113 (_ bv64 256) x288 (_ bv0 256)))))
(assert (= (x301 (_ bv288162684 256)) (_ bv0 256)))
(assert (= (x301 (x113 (_ bv64 256) x174 (_ bv60 256))) (x113 (_ bv64 256) x174 (_ bv60 256))))
(assert (x102 (_ bv20282409603651670423947251286015 256)))
(assert (= (and x204 x142) x299))
(assert (= (x113 (_ bv64 256) x288 (_ bv62 256)) (x301 (x113 (_ bv64 256) x288 (_ bv62 256)))))
(assert (= (or x353 x335) x251))
(assert (= (or x130 x225 x158) x230))
(assert (= x261 (=> (and (x30 x89 x216) (bvuge x376 (_ bv1 256)) (not (bvult (bvadd x52 x64) x64)) (= (bvadd (bvneg x128) x331) x216) (= (bvudiv x68 x376) x64) (bvuge (_ bv57896044618658097711785492504343953926634992332820282019728792003956564819967 256) x339) (= x145 (bvadd x52 x64)) (= (bvmul (_ bv1000000000000000000 256) x254) x68) (= x339 x254) (= x229 (bvudiv x68 x254)) (or x284 x268) (= (bvmul x89 x216) x339) (= (= x229 (_ bv1000000000000000000 256)) x284) (not (bvugt x216 x331)) (= (= x254 (_ bv0 256)) x268) (= x145 x186) (bvule (_ bv0 256) x339)) x118)))
(assert (=> (bvule x189 (_ bv10000 256)) (= (x301 x189) (_ bv0 256))))
(assert (= (and x251 x9) x87))
(assert (= x364 (or x22 x319)))
(assert (= x250 (=> (and (and (= x31 x283) (and (and (and (bvuge (_ bv105312291668557186697918027683670432318895095400549111254310977535 256) x12) (= x31 x246) (= (x113 (_ bv64 256) (_ bv2 256) (_ bv69 256)) x262) (bvuge (_ bv255 256) x129) (= x276 (bvugt x129 (_ bv0 256))) (= x245 (x104 x266)) (bvule (_ bv1 256) x124) (= (_ bv2 256) x86) (bvule x53 (_ bv1099511627775 256)) (= x124 (x223 x174)) (= x246 (x47 x262)) (= x85 x198) (= (x193 x384) x12) (= x388 (_ bv288162684 256)) (= x121 x326) (= x53 (x143 x384)) (= x245 x314) (= x266 x283) (= (x113 (_ bv64 256) x288 (_ bv62 256)) x384) (= x17 x90) (bvule x246 (_ bv1461501637330902918203684832716283019655932542975 256)) (= x326 (x67 x174)) (= x188 x152)) (or x276 (and (not x276) (and (= x228 (bvadd x53 x369)) (= x340 (bvadd (bvneg x228) x356)) (not (bvult x356 x270)) (not (bvugt x53 (bvadd x53 x369))) (not (bvult (bvadd x53 x369) x53)) (not (bvugt x340 x356)) (= (bvadd x53 x369) x270) (not (bvugt x340 x165)))))) (= x356 x393))) (and (bvule (_ bv1 256) x380) (bvule (_ bv1 256) x174) (bvule x43 (_ bv115792089237316195423570985008687907853269984665640564039457584007913129639935 256)) (= x111 x198) (= (_ bv1637409077 256) x322) (bvuge (_ bv115792089237316195423570985008687907853269984665640564039457584007913129639935 256) x393) (bvule (_ bv100 256) x169) (bvule x267 (_ bv115792089237316195423570985008687907853269984665640564039457584007913129639935 256)) (bvule x252 (_ bv20282409603651670423947251286015 256)) (bvuge (_ bv115792089237316195423570985008687907853269984665640564039457584007913129639935 256) x263) (= x18 (bvugt (x223 x174) (_ bv0 256))) (= x252 (x138 (_ bv68 256))) (= (x138 (_ bv36 256)) x111) (bvule x174 (_ bv1461501637330902918203684832716283019655932542975 256)) (= (x223 x174) x289) (bvule (_ bv0 256) x108) (bvuge x222 (_ bv0 256)) (= x288 x90) (bvuge x283 (_ bv0 256)) x18 (bvule x283 (_ bv1461501637330902918203684832716283019655932542975 256)) (= x288 (x138 (_ bv4 256))) (bvuge x43 (_ bv0 256)) (bvuge x393 (_ bv0 256)) (bvule (_ bv1 256) x252) (bvule (_ bv0 256) x295) (bvuge (_ bv4294967295 256) x26) (= (_ bv0 256) x303) (bvuge x26 (_ bv0 256)) (= x300 (bvult (_ bv0 256) (x223 x380))) (bvule x65 (_ bv1461501637330902918203684832716283019655932542975 256)) (bvuge (_ bv1461501637330902918203684832716283019655932542975 256) x288) x300 (= x252 x188) (bvule (_ bv0 256) x345) (bvule (_ bv1 256) x289) (bvule x111 (_ bv1461501637330902918203684832716283019655932542975 256)) (bvuge x288 (_ bv1 256)) (bvule x108 (_ bv1461501637330902918203684832716283019655932542975 256)) (bvule x380 (_ bv1461501637330902918203684832716283019655932542975 256)) (bvuge (_ bv115792089237316195423570985008687907853269984665640564039457584007913129639935 256) x295) (bvuge (_ bv57896044618658097711785492504343953926634992332820282019728792003956564819967 256) x169) (bvule (_ bv0 256) x65) (bvule (_ bv0 256) x263) (= x272 (_ bv4 256)) (not (= x174 x380)) (bvule x222 (_ bv115792089237316195423570985008687907853269984665640564039457584007913129639935 256)) (bvuge x267 (_ bv0 256)) (bvuge (_ bv1461501637330902918203684832716283019655932542975 256) x345) (bvule (_ bv1 256) x63))) x236)))
(assert (= x357 (or x117 x239)))
(assert (= (and x214 x34) x225))
(assert (= x307 (and x149 x37)))
(assert (= (=> (and (= (x183 x383) x203) (bvule x203 (_ bv20282409603651670423947251286015 256)) (bvule (_ bv1 256) x203) (= x97 (bvadd (bvneg x4) x203)) (= x249 (_ bv416 256)) (not (bvult x203 x97)) (= (= (_ bv0 256) x58) x148) (= (x170 x61) x221) (= x166 (bvudiv x182 (_ bv1000000000000000000 256))) (= (x113 (_ bv64 256) x288 (_ bv0 256)) x71) (= x336 (bvadd x203 (bvneg x4))) (= x255 (_ bv0 256)) (= x199 (bvand x336 (_ bv20282409603651670423947251286015 256))) (bvuge x241 (_ bv1 256)) (bvule x241 (_ bv105312291668557186697918027683670432318895095400549111254310977535 256)) (bvule x127 (_ bv4722366482869645213695 256)) (bvule x97 (_ bv20282409603651670423947251286014 256)) (= x127 (x156 x61)) (= x379 (bvudiv x182 x241)) (bvuge (_ bv20282409603651670423947251286015 256) x370) (bvuge (_ bv3 256) x58) (= (_ bv0 256) x265) (= x383 (x113 (_ bv64 256) x288 (_ bv0 256))) (= x58 (x171 x61)) (not (bvult x203 x4)) (= x370 (x2 x61)) (= x61 (x113 (_ bv64 256) x288 (_ bv0 256))) (= (bvadd (bvneg x4) x376) x190) (= x166 x4) (bvuge (_ bv4722366482869645213695 256) x221) (= (bvmul x4 (_ bv1000000000000000000 256)) x182)) (and (=> (and (= x177 (_ bv512 256)) x148) x180) (=> (and (not x148) (and (or (and (= x189 (_ bv0 256)) x95) (and (not x95) (and (= (x329 x115) x290) (= x115 (x113 (_ bv64 256) x288 (_ bv71 256))) (bvule x290 (_ bv1461501637330902918203684832716283019655932542975 256)) (= x290 x189)))) (and (= x95 (= x362 (_ bv0 256))) (= x377 (_ bv0 256)) (= (bvand x58 (_ bv1 256)) x362)))) x110))) x42))
(assert (= (x301 (x113 (_ bv64 256) x21 (_ bv0 256))) (x113 (_ bv64 256) x21 (_ bv0 256))))
(assert (not (x102 (x113 (_ bv64 256) x21 (_ bv0 256)))))
(assert (= x264 (x209 (x113 (_ bv64 256) x288 x264))))
(assert (x102 (_ bv4722366482869645213695 256)))
(assert (= (_ bv64 256) (x176 (x113 (_ bv64 256) x174 (_ bv60 256)))))
(assert (= x130 (and x50 x244)))
(assert (x102 (_ bv105312291668557186697918027683670432318895095400549111254310977534 256)))
(assert (x102 (_ bv105312291668557186697918027683670432318895095400549111254310977535 256)))
(assert (= x158 (and x34 (not x214))))
(assert (= x288 (x281 (x113 (_ bv64 256) x288 (_ bv72 256)))))
(assert (=> (bvule x174 (_ bv10000 256)) (= (_ bv0 256) (x301 x174))))
(assert (x102 (_ bv20282409603651670423947251286014 256)))
(assert (x102 (_ bv1099511627775 256)))
(assert (= (_ bv0 256) (x301 (_ bv4722366482869645213695 256))))
(assert (= (and x201 (not x343)) x15))
(assert (= (_ bv0 256) (x301 (_ bv41436628393252172163539528543619094058851530980360706587524068930525597794304 256))))
(assert (x102 (_ bv10000000000 256)))
(assert (= (and x81 x192) x316))
(assert (= (or x215 x157) x319))
(assert (= x389 (=> (and (or (not x150) x150) (and (not (bvugt x103 (bvadd x363 x103))) (= (x167 x159) x103) (= (x113 (_ bv64 256) x288 (_ bv61 256)) x159) (= (= x363 (_ bv0 256)) x150) (= (bvadd x103 x363) x349))) x42)))
(assert (= (x113 (_ bv64 256) x288 (_ bv61 256)) (x301 (x113 (_ bv64 256) x288 (_ bv61 256)))))
(assert (=> (bvule x288 (_ bv10000 256)) (= (x301 x288) (_ bv0 256))))
(assert (= (and x244 (not x50)) x34))
(assert (= (x113 (_ bv64 256) x288 (_ bv72 256)) (x301 (x113 (_ bv64 256) x288 (_ bv72 256)))))
(assert (= (x301 x275) (x301 (bvadd (_ bv1 256) x275))))
(assert (= x278 (and x142 (not x204))))
(assert (x102 (_ bv115792089237316195423570985008687907853269984665640564039457584007913129639935 256)))
(assert (= (and x201 x343) x123))
(assert (= x44 (and (not x276) x247)))
(assert (bvugt (x113 (_ bv64 256) (_ bv2 256) (_ bv69 256)) (_ bv10000 256)))
(assert (bvult (_ bv10000 256) (x113 (_ bv64 256) x288 (_ bv72 256))))
(assert (= (x113 (_ bv64 256) x288 (_ bv0 256)) (x301 (x113 (_ bv64 256) x288 (_ bv0 256)))))
(assert (= x360 (and x83 x148)))
(assert (= (or x321 x344) x162))
(assert (= (_ bv64 256) (x176 (x113 (_ bv64 256) x288 (_ bv62 256)))))
(assert (= (x301 (_ bv39341301877480157781710804024396230103289065588583741745104145964028735258624 256)) (_ bv0 256)))
(assert (not x250))
(assert (= (or x15 x123) x244))
(assert (= x308 (and x279 (not x220))))
(assert (= (_ bv0 256) (x301 (_ bv10000000000 256))))
(assert (bvugt (x113 (_ bv64 256) x288 (_ bv62 256)) (_ bv10000 256)))
(assert (= (x301 (x113 (_ bv64 256) x288 x264)) (x113 (_ bv64 256) x288 x264)))
(assert (= x273 (=> (and (or (and (not x50) (and (or (and x214 (= x305 x6)) (and (not x214) (and (bvuge (_ bv4722366482869645213695 256) x315) (= x6 x29) (= (x208 x206) x48) (= x29 (bvadd x358 (_ bv96 256))) (= x358 (bvadd (_ bv128 256) x212)) (bvuge (_ bv4722366482869645213695 256) x70) (= (x324 x206) x70) (= x49 (x112 x355)) (= x371 (x96 x206)) (= (bvudiv x97 (_ bv10000000000 256)) x25) (= x179 (x96 x355)) (bvuge (_ bv3 256) x334) (= (x346 x355) x334) (= x287 (bvadd x315 (bvneg x38))) (= (bvadd x25 x287) x155) (bvule x48 (_ bv4722366482869645213695 256)) (bvuge (_ bv4722366482869645213695 256) x49) (= (bvadd (_ bv96 256) x305) x212) (bvule x287 (_ bv4722366482869645213695 256)) (bvuge (_ bv4722366482869645213695 256) x155) (bvule x179 (_ bv20282409603651670423947251286015 256)) (= x206 (x113 (_ bv64 256) x21 (_ bv0 256))) (= x38 (bvudiv x203 (_ bv10000000000 256))) (bvuge (_ bv20282409603651670423947251286015 256) x371) (= x355 (x113 (_ bv64 256) x21 (_ bv0 256))) (= (x106 x355) x315)))) (and (= (bvadd x203 (bvneg x97)) x207) (= (= (_ bv0 256) x207) x214)))) (and x50 (= x305 x6))) (and (= x50 (= (_ bv0 256) x21)) (= x161 (_ bv1 256)))) x337)))
(assert (= (_ bv0 256) (x301 (_ bv105312291668557186697918027683670432318895095400549111254310977535 256))))
(assert (= x24 (or (and x220 x279) x162)))
(assert (= (=> (and (= x186 x20) (= x72 (bvand (_ bv340282366920938463463374607431768211455 256) x356))) x341) x13))
(assert (= (x209 (x113 (_ bv64 256) x288 (_ bv62 256))) (_ bv62 256)))
(assert (x102 (_ bv288162684 256)))
(assert (=> (bvule x266 (_ bv10000 256)) (= (x301 x266) (_ bv0 256))))
(assert (not (x102 (x113 (_ bv64 256) x189 (_ bv0 256)))))
(assert (= (=> (= x204 (ite x154 x154 (not (bvult x128 x55)))) (and (=> (and (not x204) (and (= (bvult x55 x356) x8) (or (and (not x8) (= x356 x331)) (and (= x55 x331) x8)))) x261) (=> (and x204 (= x186 x52)) x118))) x237))
(assert (= (and (not x311) x234) x297))
(assert (= (_ bv0 256) (x301 (_ bv1637409077 256))))
(assert (= x328 (and x251 (not x9))))
(assert (= x321 (and x308 x140)))
(assert (not (x102 (x113 (_ bv64 256) x288 (_ bv72 256)))))
(assert (= x81 (or x299 x357)))
(assert (= (=> (= x220 (= x53 (_ bv0 256))) (and (=> x220 x79) (=> (and (not x220) (and (and (= (= x211 (_ bv0 256)) x140) (bvule x211 (_ bv105312291668557186697918027683670432318895095400549111254310977534 256)) (bvule x12 (_ bv105312291668557186697918027683670432318895095400549111254310977535 256)) (bvuge x12 (_ bv1 256)) (= (bvadd x12 (bvneg x4)) x211) (not (bvult x12 x211))) (or x140 (and (and (bvule x242 (_ bv105312291668557186697918027683670432318895095400549111254310977534 256)) (bvuge x46 (_ bv1 256)) (= (x113 (_ bv64 256) x288 (_ bv62 256)) x269) (= x46 (x193 x269)) (bvuge (_ bv105312291668557186697918027683670432318895095400549111254310977535 256) x46) (= x242 (bvadd (bvneg x4) x46))) (not x140))))) x93))) x120))
(assert (= (and (not x149) x37) x386))
(assert (= (_ bv64 256) (x176 (x113 (_ bv64 256) x288 x264))))
(assert (= x174 (x281 (x113 (_ bv64 256) x174 (_ bv60 256)))))
(assert (= x247 true))
(assert (= x219 (and x83 (not x148))))
(assert (= x382 (and x234 x311)))
(assert (= x76 (and x328 (not x73))))
(assert (bvugt (x113 (_ bv64 256) x174 (_ bv60 256)) (_ bv10000 256)))
(assert (= x118 (=> (and (or (not x192) x192) (= x192 (= x186 x52))) x13)))
(assert (= (_ bv0 256) (x301 (_ bv1099511627775 256))))
(assert (= (_ bv0 256) (x301 (_ bv340282366920938463463374607431768211455 256))))
(assert (= x236 (=> (and (= x128 (x348 x275)) (= (x347 x332) x52) (bvuge x317 (_ bv1 256)) (= x317 (ite (bvugt x129 (_ bv0 256)) x210 x12)) (= x210 (x183 x233)) (= (x125 x173) x392) (= (_ bv1 256) x98) (= x173 (x113 (_ bv64 256) x288 x264)) (= x275 (x113 (_ bv64 256) x174 (_ bv60 256))) (= (x113 (_ bv64 256) x288 (_ bv0 256)) x233) (bvuge (_ bv20282409603651670423947251286015 256) x4) (bvuge (_ bv20282409603651670423947251286015 256) x210) (= (bvadd (bvneg x128) x356) x184) (= (bvugt x184 (_ bv0 256)) x311) (bvuge x4 (_ bv1 256)) (= (bvadd (_ bv1 256) x275) x332) (bvuge (_ bv105312291668557186697918027683670432318895095400549111254310977535 256) x317) (bvuge (_ bv340282366920938463463374607431768211455 256) x128) (= x4 (ite (bvult x317 x252) x317 x252)) (= x264 (bvadd (_ bv2 256) x275))) (and (=> (and (= x52 x20) (not x311)) x341) (=> (and x311 (and (or (and x94 (= x154 x94)) (and (= (= x128 x356) x154) (not x94))) (and (bvuge (_ bv340282366920938463463374607431768211455 256) x89) (= (ite (= x89 (_ bv0 256)) (= x89 (_ bv0 256)) (= x376 (_ bv0 256))) x94) (= (x368 x275) x89)))) x237)))))
(assert (x102 (_ bv1637409077 256)))
(assert (= x101 (and x81 (not x192))))
(assert (= (and x219 x95) x335))
(assert (x102 (_ bv4294967295 256)))
(assert (= (x301 (_ bv105312291668557186697918027683670432318895095400549111254310977534 256)) (_ bv0 256)))
(assert (not (x102 (x113 (_ bv64 256) x288 (_ bv62 256)))))
(assert (= (or x76 x87 x375) x201))
(assert (=> (bvule x21 (_ bv10000 256)) (= (_ bv0 256) (x301 x21))))
(assert (= x51 (or x119 x297)))
(assert (x102 (_ bv1000000000000000000 256)))
(assert (= x288 (x281 (x113 (_ bv64 256) x288 (_ bv62 256)))))
(assert (x102 (_ bv41436628393252172163539528543619094058851530980360706587524068930525597794304 256)))
(assert (= x375 (and x73 x328)))
(assert (= (=> (and (and (bvule x333 (_ bv1461501637330902918203684832716283019655932542975 256)) (= (= x333 (_ bv0 256)) x149)) (or (and (not x149) (and (bvule x7 (_ bv4294967295 256)) (bvuge x197 (_ bv1 256)) (= (x223 x333) x197) (= x202 (bvadd (_ bv32 256) x296)) (= x282 (bvadd (_ bv32 256) x135)) (= (bvadd (_ bv32 256) x257) x296) (= (bvadd x177 (_ bv4 256)) x257) (= (bvadd x202 (_ bv32 256)) x135))) x149)) x120) x180))
(assert (= (and x164 (not x14)) x157))
(assert (not (x102 (x113 (_ bv64 256) x288 (_ bv71 256)))))
(assert (= x239 (and x278 x8)))
(assert (= (_ bv0 256) (x301 (_ bv20282409603651670423947251286014 256))))
(assert (= (x301 (x113 (_ bv64 256) (_ bv2 256) (_ bv69 256))) (x113 (_ bv64 256) (_ bv2 256) (_ bv69 256))))
(assert (= (_ bv0 256) (x301 (_ bv115792089237316195423570985008687907853269984665640564039457584007913129639935 256))))
(assert (= (x209 (x113 (_ bv64 256) x21 (_ bv0 256))) (_ bv0 256)))
(assert (= (_ bv64 256) (x176 (x113 (_ bv64 256) x21 (_ bv0 256)))))
(assert (not (x102 (x113 (_ bv64 256) x288 (_ bv0 256)))))
(assert (= x142 (or x256 x394)))
(assert (= (x209 (x113 (_ bv64 256) x288 (_ bv0 256))) (_ bv0 256)))
(assert (= x288 (x281 (x113 (_ bv64 256) x288 (_ bv61 256)))))
(assert (bvugt (x113 (_ bv64 256) x288 (_ bv71 256)) (_ bv10000 256)))
(assert (= (and (not x95) x219) x353))
(assert (= (x176 (x113 (_ bv64 256) x288 (_ bv0 256))) (_ bv64 256)))
(assert (= (x281 (x113 (_ bv64 256) x21 (_ bv0 256))) x21))
(assert (= (and x278 (not x8)) x117))
(check-sat)
(exit)
